0 19 26
1 27 34
2 35 35
3 31 36
4 38 39
5 30 37
6 33 38
7 29 39
8 21 37
9 31 37
10 28 35
11 26 35
12 24 33
13 25 31
14 28 31
15 29 31
16 26 27
17 19 25
18 18 23
19 16 24
20 21 23
21 20 20
22 13 21
23 18 19
24 12 16
25 15 15
26 4 13
27 10 11
28 6 10
29 5 9
30 5 7
31 5 8
32 2 7
33 2 5
34 3 3
35 2 3
36 1 1

